n = 50;
C = 260;
w = [51,218,77,59,487,31,55,285,90,412,402,22,352,195,453,91,206,292,62,172,391,281,146,500,373,391,353,182,46,398,493,80,180,449,416,201,289,376,7,145,330,469,290,480,278,124,460,368,294,206];
p = [51,218,77,59,487,31,55,285,90,412,402,22,352,195,453,91,206,292,62,172,391,281,146,500,373,391,353,182,46,398,493,80,180,449,416,201,289,376,7,145,330,469,290,480,278,124,460,368,294,206];
